NAME : XML100_3221_16
DIMENSION : 101
NB_CLUSTERS : 5
CLUSTERING_ALG : KMedoids
CLUSTERING_PARAMS : k(4)
CLUSTERS
1 0
2 1 4 8 9 12 20 22 27 29 30 36 38 40 45 51 52 53 54 55 57 59 61 64 67 69 75 78 79 81 82 84 86 88 92 94 95 96 97 100
3 5 10 13 24 26 32 33 41 48 50 60 63 65 68 72 77 98 99
4 3 14 18 19 25 31 34 35 37 42 43 46 49 56 58 70 71 73 76 80 83 87 89 90 91
5 2 6 7 11 15 16 17 21 23 28 39 44 47 62 66 74 85 93
EOF